110101100001100100111111010111001101110110001110001000101010111001110001011111011000010101010010010001100110110100000111000111000111011111011111000011000010100011010010001010111101001101101110011100100010110111010110011110111011011101000010110010111110100001000111011111111011101100000010101100101010011110110011011110010101011011101010101011111101001100100100101010010100010110111010010111001001111110111100100111000010010000101010101011000000010001010000111011000111101011010010111000111010110011101001101101010100101001100001010010110000100000111010100011110010010000111010